C = 8;
T = 21;
G = 2;
MAXCAP = 6;

% Details of the truck types
cap        = [ 2,     3,     3,     3,     5,     5,     5,     5,     5,    5,    5,    4,     4,     4,     4,    4,    4,    4,    4,    6,     6     ];
refrig     = [ false, false, false, false, false, false, false, false, true, true, true, false, false, false, true, true, true, true, true, false, false ];

% Orders placed by the customers.
order = array2d(goods,customers,
        [| 0, 4, 0, 9, 5, 6, 0, 0,  2,
         | 0, 3, 3, 8, 4, 2, 3, 10, 2 |]);
